\ Equation counts
\     Total        E        G        L        N        X        C        B
\        52       51        1        0        0        0        0        0
\ 
\ Variable counts
\                  x        b        i      s1s      s2s       sc       si
\     Total     cont   binary  integer     sos1     sos2    scont     sint
\       100      100        0        0        0        0        0        0
\ 
\ Nonzero counts
\     Total    const       NL      DLL
\      2747     2647      100        0
\ 
Minimize
 obj: 0 x2 + 0 x3 + 0 x4 + 0 x5 + 0 x6 + 0 x7 + 0 x8 + 0 x9 + 0 x10 + 0 x11 + 0 x12 + 0 x13 + 0 x14 + 0 x15 
  + 0 x16 + 0 x17 + 0 x18 + 0 x19 + 0 x20 + 0 x21 + 0 x22 + 0 x23 + 0 x24 + 0 x25 + 0 x26 + 0 x27 + 0 x28 
  + 0 x29 + 0 x30 + 0 x31 + 0 x32 + 0 x33 + 0 x34 + 0 x35 + 0 x36 + 0 x37 + 0 x38 + 0 x39 + 0 x40 + 0 x41 
  + 0 x42 + 0 x43 + 0 x44 + 0 x45 + 0 x46 + 0 x47 + 0 x48 + 0 x49 + 0 x50 + 0 x51 + 0 x52 + 0 x53 + 0 x54 
  + 0 x55 + 0 x56 + 0 x57 + 0 x58 + 0 x59 + 0 x60 + 0 x61 + 0 x62 + 0 x63 + 0 x64 + 0 x65 + 0 x66 + 0 x67 
  + 0 x68 + 0 x69 + 0 x70 + 0 x71 + 0 x72 + 0 x73 + 0 x74 + 0 x75 + 0 x76 + 0 x77 + 0 x78 + 0 x79 + 0 x80 
  + 0 x81 + 0 x82 + 0 x83 + 0 x84 + 0 x85 + 0 x86 + 0 x87 + 0 x88 + 0 x89 + 0 x90 + 0 x91 + 0 x92 + 0 x93 
  + 0 x94 + 0 x95 + 0 x96 + 0 x97 + 0 x98 + 0 x99 + 0 x100 + 0 x101 + [ 2 x2 * x52 + 2 x3 * x53 + 2 x4 * x54 
  + 2 x5 * x55 + 2 x6 * x56 + 2 x7 * x57 + 2 x8 * x58 + 2 x9 * x59 + 2 x10 * x60 + 2 x11 * x61 + 2 x12 * x62 
  + 2 x13 * x63 + 2 x14 * x64 + 2 x15 * x65 + 2 x16 * x66 + 2 x17 * x67 + 2 x18 * x68 + 2 x19 * x69 + 2 x20 * x70 
  + 2 x21 * x71 + 2 x22 * x72 + 2 x23 * x73 + 2 x24 * x74 + 2 x25 * x75 + 2 x26 * x76 + 2 x27 * x77 + 2 x28 * x78 
  + 2 x29 * x79 + 2 x30 * x80 + 2 x31 * x81 + 2 x32 * x82 + 2 x33 * x83 + 2 x34 * x84 + 2 x35 * x85 + 2 x36 * x86 
  + 2 x37 * x87 + 2 x38 * x88 + 2 x39 * x89 + 2 x40 * x90 + 2 x41 * x91 + 2 x42 * x92 + 2 x43 * x93 + 2 x44 * x94 
  + 2 x45 * x95 + 2 x46 * x96 + 2 x47 * x97 + 2 x48 * x98 + 2 x49 * x99 + 2 x50 * x100 + 2 x51 * x101 
  ]/2

Subject To
 e2: - 2.81500000000001e-2 x2 - 2.56821428571429e-2 x3 - 1.67714285714286e-2 x4 - 4.49999999999996e-3 x5 
  - 5.75357142857144e-3 x6 - .115021428571429 x7 - 7.35714285714283e-3 x8 + 2.29500000000001e-2 x9 - 3.39500000000001e-2 x10 
  - 1.8975e-2 x11 - 1.125e-2 x12 + 1.28107142857142e-2 x13 + 1.35821428571429e-2 x14 - 1.36035714285715e-2 x15 
  - .121382142857143 x16 - 2.45428571428572e-2 x17 + 4.92857142857131e-4 x18 - 8.90714285714287e-3 x19 
  - 2.78928571428574e-3 x20 + 7.05357142857148e-3 x21 - 9.64285714285709e-3 x22 - 1.08214285714287e-3 x23 
  - 4.79642857142854e-3 x24 - 1.60785714285713e-2 x25 - 4.21785714285711e-3 x26 - 8.10000000000001e-3 x27 
  - 6.35714285714284e-2 x28 + 1.62142857142863e-3 x29 - 2.46857142857143e-2 x30 + 1.73428571428572e-2 x31 
  - .212957142857143 x32 - 9.71249999999998e-2 x33 - 1.28321428571428e-2 x34 - 6.33071428571426e-2 x35 
  - 4.25000000000001e-3 x36 - 7.18178571428574e-2 x37 - 5.35714285714283e-3 x38 - 4.18928571428584e-3 x39 
  - 8.9285714285711e-4 x40 - 4.60857142857143e-2 x41 + 6.50714285714286e-3 x42 - 6.1071428571428e-3 x43 
  - 2.62571428571427e-2 x44 - 4.35892857142854e-2 x45 - 4.10714285714303e-4 x46 - 6.40357142857142e-3 x47 
  + 3.58571428571431e-3 x48 - .102967857142857 x49 - 1.28571428571428e-2 x50 - .1342 x51 + x52 = 0
 e3: - 2.56821428571429e-2 x2 - .177550492610837 x3 - 8.64747536945814e-2 x4 - .121961699507389 x5 - 2.0425e-2 x6 
  - .128937068965517 x7 - 3.6791871921183e-3 x8 - .151099137931034 x9 - .171092857142857 x10 - .135329679802956 x11 
  - 1.58374384236453e-2 x12 - 4.22906403940887e-2 x13 + 4.30443349753695e-2 x14 - 4.19793103448276e-2 x15 
  - .205994334975369 x16 - 7.32357142857143e-2 x17 - 8.5480541871921e-2 x18 - 4.26789408866994e-2 x19 
  - 7.86342364532027e-3 x20 + 4.17923645320198e-2 x21 - .156218965517241 x22 + 5.28940886699508e-3 x23 
  + 1.6889039408867e-2 x24 + .128986206896552 x25 + 8.38743842364517e-3 x26 + 4.95073891625612e-3 x27 
  - .299830541871921 x28 - 1.62682266009851e-2 x29 - 7.3925738916256e-2 x30 + .124098275862069 x31 - .64849802955665 x32 
  - .11841145320197 x33 - 2.07647783251233e-2 x34 - 3.80407635467979e-2 x35 - 8.80849753694576e-3 x36 
  - .121545566502463 x37 - 4.80818965517241e-2 x38 + 8.45394088669949e-3 x39 + 3.20119458128077e-2 x40 
  - .123291502463054 x41 - 2.47464285714287e-2 x42 + 9.06859605911338e-3 x43 - 1.611921182266e-2 x44 
  - 9.43937192118226e-2 x45 - 7.24137931034384e-5 x46 - 1.14182266009852e-2 x47 - 6.24495073891627e-3 x48 
  - .260646551724138 x49 + 3.91561576354679e-2 x50 - .351059236453202 x51 + x53 = 0
 e4: - 1.67714285714286e-2 x2 - 8.64747536945814e-2 x3 - .320196551724138 x4 - .278456650246305 x5 - 2.08750000000001e-2 x6 
  - .106618965517241 x7 + 4.96280788177331e-3 x8 - .214316502463054 x9 - .231428571428571 x10 - .166619088669951 x11 
  + 2.54401477832511e-2 x12 - 4.27368226600984e-2 x13 - 4.97257389162564e-2 x14 - 1.94710591133005e-2 x15 
  - 5.05421182266006e-2 x16 - 2.72500000000001e-3 x17 - 5.87525862068962e-2 x18 + 9.5554187192125e-4 x19 
  - .148952216748769 x20 + 5.82609605911333e-2 x21 + 5.12844827586212e-2 x22 - 1.80541871921182e-3 x23 
  + 1.17965517241379e-2 x24 + 2.69211822660092e-2 x25 + 2.98842364532039e-3 x26 - 2.54322660098542e-3 x27 
  - .308599014778325 x28 + 1.91912561576357e-2 x29 + 6.41467980295562e-2 x30 + 8.03294334975367e-2 x31 
  - .707697413793104 x32 + 7.83682266009842e-2 x33 + 2.13596059113295e-3 x34 + .158436453201969 x35 - 2.90546798029556e-2 x36 
  - .141398645320198 x37 + 4.17733990147721e-4 x38 - .336612684729064 x39 - 7.19899014778327e-2 x40 - .17665960591133 x41 
  + 7.0714285714271e-4 x42 + 5.01067733990149e-2 x43 + 7.9123891625615e-2 x44 + 7.94022167487677e-2 x45 
  - 1.3270935960591e-2 x46 + 1.21912561576354e-2 x47 - 1.37150246305418e-2 x48 - .143923152709361 x49 
  + 3.79897783251226e-2 x50 - .236040024630542 x51 + x54 = 0
 e5: - 4.49999999999996e-3 x2 - .121961699507389 x3 - .278456650246305 x4 - .873730541871921 x5 + 2.09642857142841e-3 x6 
  - .126252709359605 x7 + 3.05948275862055e-3 x8 - .375462561576354 x9 - .359710714285715 x10 - .183223645320197 x11 
  + 3.63608374384235e-2 x12 - 7.06527093596062e-2 x13 - 4.8939901477833e-2 x14 - 1.46729064039407e-2 x15 
  - .135002955665025 x16 - 8.43892857142859e-2 x17 - 3.19467980295566e-2 x18 - 1.81043103448275e-2 x19 
  - .129191133004926 x20 + 4.15168719211819e-2 x21 - 8.84450738916258e-2 x22 - 5.89618226600983e-3 x23 
  - 1.77647783251231e-2 x24 + .226704556650246 x25 - .129321551724138 x26 + 7.80147783251217e-3 x27 - .6451539408867 x28 
  - 7.5557881773399e-2 x29 + 6.50663793103451e-2 x30 + .160514408866995 x31 - .644871059113304 x32 - 1.57300492610857e-2 x33 
  - 4.59474137931038e-2 x34 + .206882758620689 x35 - 2.88485221674858e-3 x36 + 9.31160098522166e-2 x37 
  - 6.85923645320195e-2 x38 - .457774261083743 x39 + 3.31846059113289e-2 x40 - .199861576354679 x41 + 4.47607142857143e-2 x42 
  - 3.04699507389161e-2 x43 + .237593719211822 x44 + 5.34447044334963e-2 x45 - 1.31412561576353e-2 x46 
  + 3.55135467980296e-2 x47 - 1.08633004926108e-3 x48 - .192918103448278 x49 + 6.32230295566501e-2 x50 
  - .56390775862069 x51 + x55 = 0
 e6: - 5.75357142857144e-3 x2 - 2.0425e-2 x3 - 2.08750000000001e-2 x4 + 2.09642857142841e-3 x5 - 6.26e-2 x6 
  + 2.4932142857143e-2 x7 - 4.28571428571879e-5 x8 - 4.73035714285714e-2 x9 - 5.90857142857142e-2 x10 
  - 4.82607142857143e-2 x11 - 1.47999999999999e-2 x12 + 2.22107142857143e-2 x13 + 2.46214285714288e-2 x14 
  - 8.18928571428569e-3 x15 - .131407142857143 x16 - 3.07321428571429e-2 x17 - 1.08928571428571e-2 x18 
  + 1.48214285714286e-2 x19 - 1.49642857142861e-3 x20 - 4.61321428571428e-2 x21 + 7.74642857142884e-3 x22 
  + 2.22142857142858e-3 x23 + 1.68178571428571e-2 x24 - 3.36714285714286e-2 x25 - 3.41285714285714e-2 x26 
  + 2.6625e-2 x27 - 6.19642857142856e-2 x28 + 6.73928571428572e-3 x29 - 3.71464285714285e-2 x30 + 2.53142857142857e-2 x31 
  - .231007142857143 x32 - .107235714285714 x33 - 1.57464285714284e-2 x34 - 4.7357142857143e-2 x35 + 1.47142857142863e-3 x36 
  + 3.16035714285714e-2 x37 - 1.11428571428573e-3 x38 - .135357142857143 x39 - 2.09464285714286e-2 x40 
  - 7.08714285714286e-2 x41 - 1.05571428571429e-2 x42 + 2.82035714285715e-2 x43 + 1.15964285714284e-2 x44 
  + 8.59928571428572e-2 x45 + 7.2142857142856e-4 x46 + 4.61071428571428e-3 x47 + 1.42142857142858e-3 x48 
  - 6.955e-2 x49 + 3.40178571428571e-2 x50 - 7.14749999999997e-2 x51 + x56 = 0
 e7: - .115021428571429 x2 - .128937068965517 x3 - .106618965517241 x4 - .126252709359605 x5 + 2.4932142857143e-2 x6 
  - 4.2131421182266 x7 - 5.35811576354682e-2 x8 - .120341379310345 x9 - .371828571428572 x10 - .679686083743842 x11 
  - 3.2145812807882e-2 x12 + .291779310344828 x13 + .192257635467981 x14 - .105210960591133 x15 - .924461206896551 x16 
  - 7.59392857142857e-2 x17 - .150344704433498 x18 - .176250123152709 x19 - .255748522167487 x20 - 2.26584975369455e-2 x21 
  - .889289655172415 x22 - 1.6695197044335e-2 x23 - 5.32131773399015e-2 x24 - .240927216748769 x25 - 5.46847290640407e-3 x26 
  - .154489039408867 x27 - 9.12839901477837e-2 x28 - 2.64786945812807e-2 x29 - .535050246305418 x30 + 6.50291871921183e-2 x31 
  - 1.22684100985222 x32 - 1.18731810344827 x33 - .252390640394089 x34 - .605071921182266 x35 - 6.89349753694581e-2 x36 
  - .435502093596058 x37 - 8.92511083743847e-2 x38 + .365085837438424 x39 - 9.24876847290629e-2 x40 - 6.10221674876854e-2 x41 
  + 9.02464285714283e-2 x42 + 7.3189532019704e-2 x43 + .428347167487684 x44 - .950612192118227 x45 + 1.91937192118227e-2 x46 
  + 5.21570197044333e-2 x47 + 5.36576354679802e-2 x48 - .599583374384237 x49 - .322795566502463 x50 - 1.67819593596059 x51 
  + x57 = 0
 e8: - 7.35714285714283e-3 x2 - 3.6791871921183e-3 x3 + 4.96280788177331e-3 x4 + 3.05948275862055e-3 x5 
  - 4.28571428571879e-5 x6 - 5.35811576354682e-2 x7 - 2.32891625615763e-2 x8 + 2.34482758620676e-3 x9 
  - 1.45392857142858e-2 x10 + 3.7852216748769e-3 x11 - 6.33965517241377e-3 x12 + 1.41545566502463e-2 x13 
  + 8.86970443349746e-3 x14 + 7.21157635467979e-3 x15 - 1.17161330049265e-2 x16 - 1.51607142857144e-2 x17 
  + 1.62939655172412e-2 x18 - 2.02992610837438e-3 x19 - 3.87302955665028e-3 x20 + 1.05029556650247e-2 x21 
  - 4.17290640394088e-2 x22 - 7.11453201970449e-4 x23 - 1.07306650246305e-2 x24 - 5.89350985221674e-2 x25 
  - 5.09605911330054e-3 x26 - 1.40330049261084e-2 x27 - 1.45167487684732e-2 x28 + 4.76650246305416e-3 x29 
  - 2.70312807881774e-2 x30 - 7.78251231527084e-3 x31 - 4.70796798029563e-2 x32 - .11383842364532 x33 
  - 1.94541871921182e-2 x34 - 7.14268472906406e-2 x35 - 3.14187192118225e-3 x36 - 6.68731527093612e-3 x37 
  - 2.37729064039408e-2 x38 - 1.11736453201973e-2 x39 - 3.95738916256162e-3 x40 + 1.28168719211822e-2 x41 
  - 3.07857142857136e-3 x42 - 1.38937192118227e-2 x43 - 3.11561576354681e-2 x44 - .109055541871921 x45 
  + 4.04876847290639e-3 x46 - 6.49064039408863e-3 x47 - 3.56958128078816e-3 x48 - 8.37314039408872e-2 x49 
  - 3.40833743842364e-2 x50 - .121226724137931 x51 + x58 = 0
 e9: 2.29500000000001e-2 x2 - .151099137931034 x3 - .214316502463054 x4 - .375462561576354 x5 - 4.73035714285714e-2 x6 
  - .120341379310345 x7 + 2.34482758620676e-3 x8 - .718225615763547 x9 - .309753571428571 x10 - .250797167487685 x11 
  - 2.0077339901478e-2 x12 - .148602093596059 x13 + 5.49795566502462e-2 x14 - 2.87504926108374e-2 x15 
  + .190027586206898 x16 - 9.71999999999999e-2 x17 - .104489408866994 x18 - 5.70109605911329e-2 x19 - .133125615763547 x20 
  + 8.37586206896572e-3 x21 - .265997167487684 x22 + 3.6881773399015e-3 x23 + 4.76415024630542e-2 x24 
  + .233052709359606 x25 - 1.9497660098522e-2 x26 + 5.43040640394086e-2 x27 - .365735837438423 x28 - 3.82823891625617e-2 x29 
  - 9.79469211822659e-2 x30 + .159022660098522 x31 - 1.67176416256158 x32 + 6.60530788177339e-2 x33 - .146806280788177 x34 
  - 2.64027093596037e-3 x35 - 5.09852216748764e-3 x36 + .269374384236452 x37 - 2.30165024630542e-2 x38 
  - .396249753694581 x39 + .183688916256158 x40 - .282222906403941 x41 - 5.16e-2 x42 - 6.62807881773367e-3 x43 
  + .208605049261083 x44 - 7.00493842364531e-2 x45 - 3.24113300492603e-3 x46 + 1.87832512315275e-3 x47 
  - 2.43347290640394e-2 x48 - .391906034482759 x49 + .122155295566502 x50 - .603274014778325 x51 + x59
   = 0
 e10: - 3.39500000000001e-2 x2 - .171092857142857 x3 - .231428571428571 x4 - .359710714285715 x5 - 5.90857142857142e-2 x6 
  - .371828571428572 x7 - 1.45392857142858e-2 x8 - .309753571428571 x9 - .725057142857143 x10 - .170496428571429 x11 
  - 4.32607142857136e-2 x12 - 7.69642857142854e-2 x13 + 7.75892857142863e-2 x14 - 4.66714285714287e-2 x15 
  - .388192857142857 x16 - .109728571428572 x17 - 3.91535714285715e-2 x18 - 4.59357142857143e-2 x19 - .136989285714285 x20 
  - .123982142857143 x21 - .142475 x22 + 1.73928571428579e-3 x23 + 1.99e-2 x24 + 5.79214285714287e-2 x25 
  - 5.97750000000001e-2 x26 - 2.5714285714286e-3 x27 - .319196428571429 x28 - 1.15642857142857e-2 x29 
  + 4.19678571428571e-2 x30 + .109617857142857 x31 - 1.28714285714286 x32 - .151585714285713 x33 - .137478571428572 x34 
  - 3.00428571428567e-2 x35 + 5.86785714285728e-3 x36 + 5.80142857142858e-2 x37 - 4.49571428571425e-2 x38 
  - .41145 x39 - 7.84928571428565e-2 x40 - .149778571428572 x41 - 3.52857142857158e-3 x42 + 6.97714285714288e-2 x43 
  + .17375 x44 - .30145 x45 + 2.01678571428572e-2 x46 - 6.7714285714286e-3 x47 - 1.56285714285714e-2 x48 
  - .276953571428572 x49 + 3.52214285714285e-2 x50 - .650510714285714 x51 + x60 = 0
 e11: - 1.8975e-2 x2 - .135329679802956 x3 - .166619088669951 x4 - .183223645320197 x5 - 4.82607142857143e-2 x6 
  - .679686083743842 x7 + 3.7852216748769e-3 x8 - .250797167487685 x9 - .170496428571429 x10 - .51814802955665 x11 
  + 2.43871921182265e-2 x12 + .102678201970444 x13 - 5.68895320197041e-2 x14 - .147128448275862 x15 - 7.60467980295784e-4 x16 
  - 1.56892857142856e-2 x17 - .154547290640394 x18 - 2.61981527093597e-2 x19 - .121472167487684 x20 + 5.75774630541868e-2 x21 
  - .124190886699507 x22 + 1.43886699507389e-2 x23 + 1.57619458128079e-2 x24 - .203488177339902 x25 - 3.77764778325126e-2 x26 
  - 6.1364408866995e-2 x27 - .292472290640394 x28 - 6.57672413793102e-3 x29 - .227835591133005 x30 + 7.95014778325124e-2 x31 
  - 1.39005270935961 x32 - 3.89713054187185e-2 x33 - 5.999039408867e-2 x34 - 6.1517610837439e-2 x35 - 3.6675369458128e-2 x36 
  - 7.33185960591124e-2 x37 + 9.63091133004923e-3 x38 - .105305418719212 x39 + 6.72366995073899e-2 x40 
  - .340003201970443 x41 - 5.65857142857142e-2 x42 + 1.04605911330053e-2 x43 - 5.82432266009849e-2 x44 
  - 2.58528325123149e-2 x45 - 5.45073891625615e-4 x46 - 2.14410098522168e-2 x47 + 2.78325123152747e-4 x48 
  - .466888669950739 x49 - 6.55450738916255e-2 x50 - .627985960591133 x51 + x61 = 0
 e12: - 1.125e-2 x2 - 1.58374384236453e-2 x3 + 2.54401477832511e-2 x4 + 3.63608374384235e-2 x5 - 1.47999999999999e-2 x6 
  - 3.2145812807882e-2 x7 - 6.33965517241377e-3 x8 - 2.0077339901478e-2 x9 - 4.32607142857136e-2 x10 
  + 2.43871921182265e-2 x11 - 4.47738916256155e-2 x12 - 2.35529556650246e-2 x13 - 1.74841133004926e-2 x14 
  + 2.0509852216749e-3 x15 - 3.72444581280779e-2 x16 - 3.58249999999997e-2 x17 + 5.39532019704236e-4 x18 
  - 1.102216748769e-4 x19 + 2.35837438423649e-3 x20 + 1.70339901477834e-2 x21 - 7.08985221674883e-2 x22 
  - 6.37068965517218e-4 x23 + 1.33485221674884e-3 x24 - 1.65161330049259e-2 x25 + 8.02032019704425e-3 x26 
  - 5.99741379310337e-3 x27 + 3.6068103448275e-2 x28 + 1.25183497536946e-2 x29 - 2.09525862068966e-2 x30 
  + 1.82618226600983e-2 x31 - .12347881773399 x32 - 6.03633004926109e-2 x33 - 4.61017241379309e-2 x34 
  - 8.03373152709364e-2 x35 + 4.43472906403916e-4 x36 - 5.9223768472906e-2 x37 - 1.19669950738915e-2 x38 
  + 2.29950738916232e-3 x39 - 4.02099753694581e-2 x40 - 1.91847290640412e-3 x41 - 7.71428571428663e-4 x42 
  + 7.80972906403934e-3 x43 + 1.48613300492608e-2 x44 + 2.44380541871913e-2 x45 + 7.91440886699501e-3 x46 
  + 2.19334975369465e-3 x47 + 4.8017241379307e-4 x48 - 4.01200738916269e-2 x49 - 1.52891625615765e-2 x50 
  - 8.5544827586207e-2 x51 + x62 = 0
 e13: 1.28107142857142e-2 x2 - 4.22906403940887e-2 x3 - 4.27368226600984e-2 x4 - 7.06527093596062e-2 x5 
  + 2.22107142857143e-2 x6 + .291779310344828 x7 + 1.41545566502463e-2 x8 - .148602093596059 x9 - 7.69642857142854e-2 x10 
  + .102678201970444 x11 - 2.35529556650246e-2 x12 - .262999261083744 x13 - 4.77807881773399e-3 x14 + 1.91104679802956e-2 x15 
  + .291431650246306 x16 + 2.35714285714283e-2 x17 - 3.22447044334974e-2 x18 - 1.63179802955665e-2 x19 
  - 5.09913793103449e-2 x20 + .156012931034483 x21 - .264643226600985 x22 - 5.68805418719212e-3 x23 - 4.25960591133004e-3 x24 
  + .306397783251232 x25 + 8.16779556650247e-2 x26 + 5.24310344827576e-3 x27 - 2.61947044334977e-2 x28 
  - 3.76108374384236e-2 x29 + 9.96568965517242e-2 x30 + 3.23184729064039e-2 x31 + .116394704433497 x32 
  + .25882118226601 x33 - 1.31834975369459e-2 x34 + .196006650246305 x35 - 1.00278325123152e-2 x36 - 8.99663793103448e-2 x37 
  + 2.53203201970445e-2 x38 + 8.61144088669946e-2 x39 - .134719827586207 x40 - 7.11453201970334e-4 x41 
  - 6.96642857142858e-2 x42 - 5.43104679802956e-2 x43 + .152475738916256 x44 + 6.17270935960589e-2 x45 
  + 3.38657635467984e-3 x46 + 4.69630541871921e-3 x47 - 7.99593596059114e-3 x48 + .184302339901478 x49 
  + 6.45472906403939e-2 x50 + .104261206896552 x51 + x63 = 0
 e14: 1.35821428571429e-2 x2 + 4.30443349753695e-2 x3 - 4.97257389162564e-2 x4 - 4.8939901477833e-2 x5 
  + 2.46214285714288e-2 x6 + .192257635467981 x7 + 8.86970443349746e-3 x8 + 5.49795566502462e-2 x9 + 7.75892857142863e-2 x10 
  - 5.68895320197041e-2 x11 - 1.74841133004926e-2 x12 - 4.77807881773399e-3 x13 - .477768719211822 x14 
  - 5.90870689655173e-2 x15 + .372408004926109 x16 + .102935714285714 x17 - .127629802955665 x18 + 2.67118226600984e-2 x19 
  - 3.21383004926109e-2 x20 + .138526477832512 x21 - 4.62431034482759e-2 x22 - 1.14753694581281e-2 x23 
  - 1.33064039408867e-2 x24 - .334655049261084 x25 - 2.30587438423642e-2 x26 - .110577216748768 x27 - 5.86194581280804e-3 x28 
  + 2.60796798029557e-2 x29 + 4.46022167487685e-2 x30 + 2.00123152709358e-2 x31 + .37894408866995 x32 
  + .132127216748769 x33 - 3.15020935960588e-2 x34 + .143297290640394 x35 - 2.46102216748768e-2 x36 - .147745443349753 x37 
  + 1.40278325123154e-2 x38 - 9.54796798029553e-2 x39 - .153867980295567 x40 - 8.66612068965512e-2 x41 
  + 2.54857142857143e-2 x42 + 4.16564039408845e-3 x43 - .20116736453202 x44 + .208899014778325 x45 - 2.71133004926102e-3 x46 
  + 1.23261083743842e-2 x47 + 2.3485221674878e-4 x48 - 7.75746305418716e-2 x49 - .205914901477833 x50 
  - 2.81115763546798e-2 x51 + x64 = 0
 e15: - 1.36035714285715e-2 x2 - 4.19793103448276e-2 x3 - 1.94710591133005e-2 x4 - 1.46729064039407e-2 x5 
  - 8.18928571428569e-3 x6 - .105210960591133 x7 + 7.21157635467979e-3 x8 - 2.87504926108374e-2 x9 - 4.66714285714287e-2 x10 
  - .147128448275862 x11 + 2.0509852216749e-3 x12 + 1.91104679802956e-2 x13 - 5.90870689655173e-2 x14 
  - .108054679802956 x15 - 3.2698645320197e-2 x16 + 2.45678571428571e-2 x17 - 6.61493842364531e-2 x18 
  - 1.0995197044335e-2 x19 - 2.06362068965516e-2 x20 + 4.31711822660098e-3 x21 - 8.06141625615762e-2 x22 
  + 1.63054187192118e-3 x23 + 3.1889162561576e-3 x24 - .125602832512315 x25 - 6.00116995073893e-2 x26 
  - 4.49846059113301e-2 x27 - 7.69672413793103e-2 x28 - 1.20666256157635e-2 x29 - 6.98403940886699e-2 x30 
  + 6.41795566502463e-2 x31 - .38718275862069 x32 + 6.86203201970445e-2 x33 - 1.50257389162562e-2 x34 
  + 1.94692118226601e-2 x35 - 2.07145320197044e-2 x36 + 1.2228078817734e-2 x37 + 1.92896551724137e-2 x38 
  - 2.81262315270934e-2 x39 + 4.23947044334975e-2 x40 - .205099753694581 x41 - 2.68642857142857e-2 x42 
  - 9.6953201970443e-3 x43 - 3.80466748768473e-2 x44 + 4.58147783251231e-2 x45 - 2.13004926108374e-3 x46 
  - 2.20773399014778e-2 x47 - 2.26354679802942e-4 x48 - 9.34698275862069e-2 x49 - 4.07514778325123e-2 x50 
  - .177329926108374 x51 + x65 = 0
 e16: - .121382142857143 x2 - .205994334975369 x3 - 5.05421182266006e-2 x4 - .135002955665025 x5 - .131407142857143 x6 
  - .924461206896551 x7 - 1.17161330049265e-2 x8 + .190027586206898 x9 - .388192857142857 x10 - 7.60467980295784e-4 x11 
  - 3.72444581280779e-2 x12 + .291431650246306 x13 + .372408004926109 x14 - 3.2698645320197e-2 x15 - 3.97069014778325 x16 
  - .167521428571429 x17 - 5.5902339901478e-2 x18 - 7.43011083743842e-2 x19 + .132463300492611 x20 - .799087192118227 x21 
  + .494507389162561 x22 - 3.32174876847291e-2 x23 - 4.25971674876848e-2 x24 + 1.52264778325116e-2 x25 
  - .460255541871921 x26 - 6.60406403940888e-2 x27 - .895498768472907 x28 - 1.76261083743843e-2 x29 - .112666502463054 x30 
  + .404330541871921 x31 - .52246908866995 x32 - 1.4484486453202 x33 - .102937192118227 x34 - .55256157635468 x35 
  + 1.52030788177343e-2 x36 - 9.42795566502461e-2 x37 - .160584975369458 x38 - .183288177339901 x39 - .483907019704434 x40 
  - .349353078817733 x41 + .198282142857143 x42 - 5.73692118226604e-2 x43 + 7.26602216748769e-2 x44 - .292627586206897 x45 
  - 3.6231527093596e-2 x46 + 4.91703201970444e-2 x47 + 7.01514778325127e-3 x48 - .444718226600986 x49 
  + .266336330049261 x50 - .730027709359606 x51 + x66 = 0
 e17: - 2.45428571428572e-2 x2 - 7.32357142857143e-2 x3 - 2.72500000000001e-3 x4 - 8.43892857142859e-2 x5 
  - 3.07321428571429e-2 x6 - 7.59392857142857e-2 x7 - 1.51607142857144e-2 x8 - 9.71999999999999e-2 x9 
  - .109728571428572 x10 - 1.56892857142856e-2 x11 - 3.58249999999997e-2 x12 + 2.35714285714283e-2 x13 
  + .102935714285714 x14 + 2.45678571428571e-2 x15 - .167521428571429 x16 - .274142857142857 x17 + 5.56428571428521e-3 x18 
  + 2.05857142857142e-2 x19 + 1.52964285714285e-2 x20 - 2.80285714285713e-2 x21 - 6.16535714285723e-2 x22 
  + 7.425e-3 x23 - 2.48321428571429e-2 x24 + 3.24285714285716e-2 x25 + 2.36321428571427e-2 x26 + 1.85964285714285e-2 x27 
  - 6.52892857142864e-2 x28 - 1.19999999999999e-3 x29 - 6.30321428571428e-2 x30 + 8.01107142857146e-2 x31 
  - .486471428571429 x32 - .137678571428572 x33 + 1.09071428571427e-2 x34 - .10665 x35 - 7.57142857142891e-4 x36 
  - .125421428571429 x37 - 4.26392857142857e-2 x38 - 9.09821428571425e-2 x39 + .277285714285714 x40 - 2.63142857142854e-2 x41 
  + 4.36107142857143e-2 x42 + 6.05857142857141e-2 x43 + .104396428571428 x44 + .318171428571428 x45 + 7.49285714285709e-3 x46 
  - 6.03571428571429e-3 x47 + 1.07785714285714e-2 x48 + 3.80607142857139e-2 x49 + 9.18071428571429e-2 x50 
  - .300596428571429 x51 + x67 = 0
 e18: 4.92857142857131e-4 x2 - 8.5480541871921e-2 x3 - 5.87525862068962e-2 x4 - 3.19467980295566e-2 x5 
  - 1.08928571428571e-2 x6 - .150344704433498 x7 + 1.62939655172412e-2 x8 - .104489408866994 x9 - 3.91535714285715e-2 x10 
  - .154547290640394 x11 + 5.39532019704236e-4 x12 - 3.22447044334974e-2 x13 - .127629802955665 x14 - 6.61493842364531e-2 x15 
  - 5.5902339901478e-2 x16 + 5.56428571428521e-3 x17 - .24628645320197 x18 - 4.73193349753694e-2 x19 
  + 3.12130541871927e-3 x20 + 9.45517241379319e-3 x21 - .213433004926109 x22 - 9.35221674876832e-4 x23 
  - 3.5188423645322e-3 x24 - 7.23551724137936e-2 x25 - 3.13109605911329e-2 x26 + 7.81366995073879e-3 x27 
  - .244682881773398 x28 - 3.39907635467979e-2 x29 - 1.9745812807882e-2 x30 + 8.15288177339898e-2 x31 
  - .335206403940885 x32 - 7.55208128078822e-2 x33 - 3.87698275862068e-2 x34 + 3.79583743842361e-2 x35 
  - 2.61054187192118e-2 x36 + 3.47498768472897e-2 x37 + 8.03312807881763e-3 x38 + .117876477832513 x39 
  - .123884359605912 x40 - 8.74660098522157e-2 x41 - 3.43035714285715e-2 x42 - 2.0418472906404e-2 x43 
  - 3.48554187192115e-2 x44 + 8.07929802955667e-2 x45 - 1.19075123152708e-2 x46 + 9.4950738916248e-5 x47 
  + 8.38054187192177e-4 x48 - .165096921182265 x49 - 3.44182266009856e-2 x50 - .222811945812808 x51 + x68
   = 0
 e19: - 8.90714285714287e-3 x2 - 4.26789408866994e-2 x3 + 9.5554187192125e-4 x4 - 1.81043103448275e-2 x5 
  + 1.48214285714286e-2 x6 - .176250123152709 x7 - 2.02992610837438e-3 x8 - 5.70109605911329e-2 x9 - 4.59357142857143e-2 x10 
  - 2.61981527093597e-2 x11 - 1.102216748769e-4 x12 - 1.63179802955665e-2 x13 + 2.67118226600984e-2 x14 
  - 1.0995197044335e-2 x15 - 7.43011083743842e-2 x16 + 2.05857142857142e-2 x17 - 4.73193349753694e-2 x18 
  - 6.4481527093596e-2 x19 + 1.76497536945813e-2 x20 - 3.56217980295566e-2 x21 - 9.93910098522167e-2 x22 
  - 5.73830049261083e-3 x23 + 8.67302955665026e-3 x24 + 2.46539408866996e-2 x25 + 1.29816502463054e-2 x26 
  + 2.48737684729064e-2 x27 - 8.84943349753694e-2 x28 - 1.54136699507389e-2 x29 - 3.34701970443349e-2 x30 
  + 9.64334975369458e-3 x31 - .14173066502463 x32 - .130630911330049 x33 - 4.19896551724138e-2 x34 - 5.60546798029557e-2 x35 
  + 3.54987684729066e-3 x36 + 8.45104679802952e-2 x37 - 1.29766009852217e-2 x38 + 4.55600985221677e-2 x39 
  - 4.78651477832512e-2 x40 + 2.39501231527094e-2 x41 - 1.005e-2 x42 - 4.3804802955665e-2 x43 - 1.55322660098522e-2 x44 
  - .282578325123153 x45 - 4.84359605911328e-3 x46 - 3.87081280788179e-3 x47 - 2.83817733990148e-3 x48 
  - .190043842364532 x49 - 5.02007389162562e-2 x50 - .14378460591133 x51 + x69 = 0
 e20: - 2.78928571428574e-3 x2 - 7.86342364532027e-3 x3 - .148952216748769 x4 - .129191133004926 x5 - 1.49642857142861e-3 x6 
  - .255748522167487 x7 - 3.87302955665028e-3 x8 - .133125615763547 x9 - .136989285714285 x10 - .121472167487684 x11 
  + 2.35837438423649e-3 x12 - 5.09913793103449e-2 x13 - 3.21383004926109e-2 x14 - 2.06362068965516e-2 x15 
  + .132463300492611 x16 + 1.52964285714285e-2 x17 + 3.12130541871927e-3 x18 + 1.76497536945813e-2 x19 
  - .17773275862069 x20 + .105043719211823 x21 - 3.1982881773399e-2 x22 + 1.29532019704432e-3 x23 - 1.05834975369458e-2 x24 
  - 3.09115763546799e-2 x25 + 2.05737684729065e-2 x26 - 2.50495073891626e-2 x27 - 3.4596551724138e-2 x28 
  - 5.23238916256158e-3 x29 + 3.77807881773411e-3 x30 + 3.67623152709363e-3 x31 - .743553448275861 x32 
  + 6.45137931034483e-2 x33 - 3.39199507389168e-3 x34 + 3.90258620689654e-3 x35 - 2.65735221674877e-2 x36 
  - 8.99970443349752e-2 x37 + 2.61799261083744e-2 x38 - 7.31283251231531e-2 x39 - .178121798029557 x40 
  - 6.24264778325124e-2 x41 + 3.33928571428567e-3 x42 + 1.76834975369465e-3 x43 + 3.59514778325124e-2 x44 
  + 3.34704433497591e-3 x45 + 6.98743842364534e-3 x46 - 2.77881773399013e-3 x47 - 1.49901477832512e-3 x48 
  - 7.63417487684726e-2 x49 + 6.16958128078821e-3 x50 - .147313300492611 x51 + x70 = 0
 e21: 7.05357142857148e-3 x2 + 4.17923645320198e-2 x3 + 5.82609605911333e-2 x4 + 4.15168719211819e-2 x5 
  - 4.61321428571428e-2 x6 - 2.26584975369455e-2 x7 + 1.05029556650247e-2 x8 + 8.37586206896572e-3 x9 
  - .123982142857143 x10 + 5.75774630541868e-2 x11 + 1.70339901477834e-2 x12 + .156012931034483 x13 + .138526477832512 x14 
  + 4.31711822660098e-3 x15 - .799087192118227 x16 - 2.80285714285713e-2 x17 + 9.45517241379319e-3 x18 
  - 3.56217980295566e-2 x19 + .105043719211823 x20 - .67810763546798 x21 + .175852463054187 x22 - 1.31034482758621e-2 x23 
  + 3.90354679802956e-2 x24 - .113981650246305 x25 - .121408990147783 x26 + 4.79793103448276e-2 x27 - .123794827586207 x28 
  + 2.26034482758607e-3 x29 - 1.5525738916256e-2 x30 - 7.95529556650248e-3 x31 - .36064445812808 x32 
  - .318697167487684 x33 - 4.28826354679803e-2 x34 - .120612192118226 x35 + 4.57736453201971e-2 x36 + .517465147783251 x37 
  - 3.62533251231528e-2 x38 - .192410344827586 x39 + .273808374384236 x40 - 2.01272167487685e-2 x41 + 5.81071428571429e-2 x42 
  + 5.02221674876847e-2 x43 + 6.80415024630541e-2 x44 - .257765147783251 x45 - 1.12974137931035e-2 x46 
  + 1.8749630541872e-2 x47 - 7.25209359605912e-3 x48 - 2.85837438423833e-4 x49 + 1.31490147783254e-2 x50 
  - 4.82806650246306e-2 x51 + x71 = 0
 e22: - 9.64285714285709e-3 x2 - .156218965517241 x3 + 5.12844827586212e-2 x4 - 8.84450738916258e-2 x5 
  + 7.74642857142884e-3 x6 - .889289655172415 x7 - 4.17290640394088e-2 x8 - .265997167487684 x9 - .142475 x10 
  - .124190886699507 x11 - 7.08985221674883e-2 x12 - .264643226600985 x13 - 4.62431034482759e-2 x14 - 8.06141625615762e-2 x15 
  + .494507389162561 x16 - 6.16535714285723e-2 x17 - .213433004926109 x18 - 9.93910098522167e-2 x19 - 3.1982881773399e-2 x20 
  + .175852463054187 x21 - 1.66596231527094 x22 - 5.35775862068969e-3 x23 - 3.54237684729065e-2 x24 - .102806034482758 x25 
  + 9.91378078817729e-2 x26 - .130446551724138 x27 - .40611157635468 x28 - 5.67338669950738e-2 x29 - .263382019704433 x30 
  + 3.80943349753697e-2 x31 - .479602709359603 x32 - .344821305418719 x33 - .121376108374384 x34 - .238714039408867 x35 
  - 5.66039408866993e-2 x36 - 1.36328817733996e-2 x37 - 7.24690886699503e-2 x38 + .336951724137931 x39 
  + 3.67241379310289e-3 x40 - .104753201970443 x41 - .17465 x42 - .111921551724138 x43 + .264699630541873 x44 
  - .444256403940886 x45 + 8.72783251231565e-4 x46 - 7.79100985221667e-3 x47 - 2.30038177339901e-2 x48 
  - .362270812807881 x49 - .226616502463054 x50 - 1.01497524630542 x51 + x72 = 0
 e23: - 1.08214285714287e-3 x2 + 5.28940886699508e-3 x3 - 1.80541871921182e-3 x4 - 5.89618226600983e-3 x5 
  + 2.22142857142858e-3 x6 - 1.6695197044335e-2 x7 - 7.11453201970449e-4 x8 + 3.6881773399015e-3 x9 + 1.73928571428579e-3 x10 
  + 1.43886699507389e-2 x11 - 6.37068965517218e-4 x12 - 5.68805418719212e-3 x13 - 1.14753694581281e-2 x14 
  + 1.63054187192118e-3 x15 - 3.32174876847291e-2 x16 + 7.425e-3 x17 - 9.35221674876832e-4 x18 - 5.73830049261083e-3 x19 
  + 1.29532019704432e-3 x20 - 1.31034482758621e-2 x21 - 5.35775862068969e-3 x22 - 5.50270935960591e-3 x23 
  - 5.08866995073885e-4 x24 - 9.84298029556642e-3 x25 - 1.18793103448276e-3 x26 - 3.10197044334977e-3 x27 
  - 2.51379310344828e-3 x28 - 5.97290640394066e-5 x29 - 2.8408866995074e-3 x30 + 4.38435960591134e-3 x31 
  + 8.19102216748769e-2 x32 - 1.56730295566502e-2 x33 - 6.70701970443348e-3 x34 - 3.62820197044332e-3 x35 
  - 4.30911330049251e-4 x36 + 5.42032019704427e-3 x37 - 2.76847290640386e-4 x38 - 1.04831280788177e-2 x39 
  + 7.29064039408853e-5 x40 + 2.96662561576353e-3 x41 + 5.54285714285713e-3 x42 - 7.36625615763547e-3 x43 
  + 1.69262315270936e-2 x44 - 3.468460591133e-2 x45 - 1.48903940886699e-3 x46 + 4.87955665024631e-3 x47 
  + 9.0677339901478e-4 x48 + 1.74556650246309e-3 x49 - 1.59533251231527e-2 x50 - 1.16325123152709e-2 x51 
  + x73 = 0
 e24: - 4.79642857142854e-3 x2 + 1.6889039408867e-2 x3 + 1.17965517241379e-2 x4 - 1.77647783251231e-2 x5 
  + 1.68178571428571e-2 x6 - 5.32131773399015e-2 x7 - 1.07306650246305e-2 x8 + 4.76415024630542e-2 x9 
  + 1.99e-2 x10 + 1.57619458128079e-2 x11 + 1.33485221674884e-3 x12 - 4.25960591133004e-3 x13 - 1.33064039408867e-2 x14 
  + 3.1889162561576e-3 x15 - 4.25971674876848e-2 x16 - 2.48321428571429e-2 x17 - 3.5188423645322e-3 x18 
  + 8.67302955665026e-3 x19 - 1.05834975369458e-2 x20 + 3.90354679802956e-2 x21 - 3.54237684729065e-2 x22 
  - 5.08866995073885e-4 x23 - 4.19394088669951e-2 x24 - 4.22104679802955e-2 x25 - 3.74062807881773e-2 x26 
  - 2.74174876847291e-2 x27 + 1.89187192118228e-3 x28 - 1.19305418719212e-2 x29 + 1.93103448275862e-2 x30 
  - 7.47229064039407e-3 x31 + .233229556650246 x32 + 1.92105911330048e-3 x33 - 1.18596059113303e-3 x34 
  - 1.31114532019703e-2 x35 - 1.67274630541872e-2 x36 - 8.259421182266e-2 x37 + 1.4298029556655e-4 x38 
  + 8.23733990147781e-2 x39 - 7.28743842364532e-2 x40 + 1.79174876847308e-3 x41 + 4.78571428571425e-3 x42 
  - 2.86174876847291e-2 x43 + 2.18689655172415e-2 x44 + 5.53192118226603e-2 x45 + 4.27093596059114e-3 x46 
  - 3.59482758620687e-3 x47 + 2.8185960591133e-3 x48 + 5.6766009852217e-2 x49 - 1.39397783251231e-2 x50 
  - 2.96385467980296e-2 x51 + x74 = 0
 e25: - 1.60785714285713e-2 x2 + .128986206896552 x3 + 2.69211822660092e-2 x4 + .226704556650246 x5 - 3.36714285714286e-2 x6 
  - .240927216748769 x7 - 5.89350985221674e-2 x8 + .233052709359606 x9 + 5.79214285714287e-2 x10 - .203488177339902 x11 
  - 1.65161330049259e-2 x12 + .306397783251232 x13 - .334655049261084 x14 - .125602832512315 x15 + 1.52264778325116e-2 x16 
  + 3.24285714285716e-2 x17 - 7.23551724137936e-2 x18 + 2.46539408866996e-2 x19 - 3.09115763546799e-2 x20 
  - .113981650246305 x21 - .102806034482758 x22 - 9.84298029556642e-3 x23 - 4.22104679802955e-2 x24 - 1.28365049261084 x25 
  - 9.49695812807886e-2 x26 - .13778645320197 x27 - 2.7230295566504e-3 x28 + .126625369458128 x29 - .248852832512316 x30 
  - .139237561576355 x31 - .402912684729066 x32 - .584777832512315 x33 - .108278078817734 x34 - .695987807881775 x35 
  - 3.91272167487684e-2 x36 + .155552709359606 x37 + 1.1878325123153e-2 x38 - .281311083743843 x39 - 9.83405172413795e-2 x40 
  - 5.6944211822661e-2 x41 + 3.01999999999999e-2 x42 - 4.38864532019708e-2 x43 - .321034359605912 x44 
  - .462495566502463 x45 + 7.00455665024631e-3 x46 - 3.12889162561577e-2 x47 - 3.24076354679801e-3 x48 
  - .830328448275863 x49 - .488666871921182 x50 - .529690763546798 x51 + x75 = 0
 e26: - 4.21785714285711e-3 x2 + 8.38743842364517e-3 x3 + 2.98842364532039e-3 x4 - .129321551724138 x5 
  - 3.41285714285714e-2 x6 - 5.46847290640407e-3 x7 - 5.09605911330054e-3 x8 - 1.9497660098522e-2 x9 
  - 5.97750000000001e-2 x10 - 3.77764778325126e-2 x11 + 8.02032019704425e-3 x12 + 8.16779556650247e-2 x13 
  - 2.30587438423642e-2 x14 - 6.00116995073893e-2 x15 - .460255541871921 x16 + 2.36321428571427e-2 x17 
  - 3.13109605911329e-2 x18 + 1.29816502463054e-2 x19 + 2.05737684729065e-2 x20 - .121408990147783 x21 
  + 9.91378078817729e-2 x22 - 1.18793103448276e-3 x23 - 3.74062807881773e-2 x24 - 9.49695812807886e-2 x25 
  - .340645320197044 x26 - 9.55972906403946e-3 x27 - .262343103448276 x28 - 3.4254064039409e-2 x29 + 3.78883004926109e-2 x30 
  + .103441748768473 x31 + .224957389162561 x32 - 4.99045566502462e-2 x33 - 6.77304187192118e-2 x34 - .137130541871921 x35 
  - 2.28970443349753e-2 x36 + .149355911330049 x37 + 3.08128078817718e-3 x38 - .116270935960591 x39 - .105250738916256 x40 
  - .24696724137931 x41 + 3.86357142857142e-2 x42 + 7.9438423645321e-3 x43 + 2.71366995073873e-3 x44 
  - 1.69737684729066e-2 x45 + 1.5213054187192e-3 x46 + 3.26736453201972e-3 x47 - 3.46588669950738e-3 x48 
  - .10806921182266 x49 + 3.98927339901478e-2 x50 - .117551600985222 x51 + x76 = 0
 e27: - 8.10000000000001e-3 x2 + 4.95073891625612e-3 x3 - 2.54322660098542e-3 x4 + 7.80147783251217e-3 x5 
  + 2.6625e-2 x6 - .154489039408867 x7 - 1.40330049261084e-2 x8 + 5.43040640394086e-2 x9 - 2.5714285714286e-3 x10 
  - 6.1364408866995e-2 x11 - 5.99741379310337e-3 x12 + 5.24310344827576e-3 x13 - .110577216748768 x14 
  - 4.49846059113301e-2 x15 - 6.60406403940888e-2 x16 + 1.85964285714285e-2 x17 + 7.81366995073879e-3 x18 
  + 2.48737684729064e-2 x19 - 2.50495073891626e-2 x20 + 4.79793103448276e-2 x21 - .130446551724138 x22 
  - 3.10197044334977e-3 x23 - 2.74174876847291e-2 x24 - .13778645320197 x25 - 9.55972906403946e-3 x26 
  - .15114039408867 x27 + 6.95812807881429e-4 x28 + 2.12773399014778e-2 x29 - 4.74738916256158e-2 x30 
  + 1.78847290640395e-2 x31 + 7.39220443349749e-2 x32 + .107179679802956 x33 - 1.90671182266011e-2 x34 
  + 1.59343596059115e-2 x35 - 1.90676108374384e-2 x36 - .193778078817734 x37 - 1.00432266009851e-2 x38 
  + 4.7158374384236e-2 x39 + 7.72874384236453e-2 x40 - .132257389162562 x41 - 1.46642857142857e-2 x42 
  - 1.37975369458129e-2 x43 - 1.23783251231527e-2 x44 + 3.1285221674877e-2 x45 + 3.54790640394086e-3 x46 
  - 7.67980295566499e-3 x47 - 8.07721674876846e-3 x48 + 4.24626847290637e-2 x49 - 7.18663793103447e-2 x50 
  - .192709359605912 x51 + x77 = 0
 e28: - 6.35714285714284e-2 x2 - .299830541871921 x3 - .308599014778325 x4 - .6451539408867 x5 - 6.19642857142856e-2 x6 
  - 9.12839901477837e-2 x7 - 1.45167487684732e-2 x8 - .365735837438423 x9 - .319196428571429 x10 - .292472290640394 x11 
  + 3.6068103448275e-2 x12 - 2.61947044334977e-2 x13 - 5.86194581280804e-3 x14 - 7.69672413793103e-2 x15 
  - .895498768472907 x16 - 6.52892857142864e-2 x17 - .244682881773398 x18 - 8.84943349753694e-2 x19 - 3.4596551724138e-2 x20 
  - .123794827586207 x21 - .40611157635468 x22 - 2.51379310344828e-3 x23 + 1.89187192118228e-3 x24 - 2.7230295566504e-3 x25 
  - .262343103448276 x26 + 6.95812807881429e-4 x27 - 1.61812216748769 x28 - 4.86514778325123e-2 x29 - .105538669950739 x30 
  + .240510960591133 x31 - 2.02328497536946 x32 - .700249384236453 x33 - 8.92055418719211e-2 x34 - .565498768472906 x35 
  - 3.1058990147783e-2 x36 + .135782019704432 x37 - 7.24168719211823e-2 x38 - .300544950738916 x39 - 6.54986453201968e-2 x40 
  - .40697672413793 x41 + 3.89964285714284e-2 x42 - 7.3122044334975e-2 x43 - .166037561576355 x44 - .686139162561576 x45 
  - 3.74967980295565e-2 x46 + 2.43378078817735e-2 x47 - 2.81405172413793e-2 x48 - 1.34104692118227 x49 
  + 1.67820197044306e-3 x50 - 1.15367623152709 x51 + x78 = 0
 e29: 1.62142857142863e-3 x2 - 1.62682266009851e-2 x3 + 1.91912561576357e-2 x4 - 7.5557881773399e-2 x5 
  + 6.73928571428572e-3 x6 - 2.64786945812807e-2 x7 + 4.76650246305416e-3 x8 - 3.82823891625617e-2 x9 
  - 1.15642857142857e-2 x10 - 6.57672413793102e-3 x11 + 1.25183497536946e-2 x12 - 3.76108374384236e-2 x13 
  + 2.60796798029557e-2 x14 - 1.20666256157635e-2 x15 - 1.76261083743843e-2 x16 - 1.19999999999999e-3 x17 
  - 3.39907635467979e-2 x18 - 1.54136699507389e-2 x19 - 5.23238916256158e-3 x20 + 2.26034482758607e-3 x21 
  - 5.67338669950738e-2 x22 - 5.97290640394066e-5 x23 - 1.19305418719212e-2 x24 + .126625369458128 x25 
  - 3.4254064039409e-2 x26 + 2.12773399014778e-2 x27 - 4.86514778325123e-2 x28 - 6.30100985221675e-2 x29 
  + 1.05298029556651e-2 x30 + 9.3254926108374e-3 x31 - .125055665024631 x32 - 2.29094827586208e-2 x33 
  + 2.43389162561576e-2 x34 + 3.73167487684729e-2 x35 - 4.12869458128075e-3 x36 + 9.33283251231531e-2 x37 
  + 1.71268472906401e-3 x38 + .102860098522168 x39 - 5.61758620689657e-2 x40 - 3.37320197044332e-2 x41 
  - 7.42857142857142e-3 x42 - 4.34440886699508e-2 x43 - 1.53694581280794e-4 x44 - 4.76403940886741e-3 x45 
  - 1.97167487684699e-4 x46 - 8.84581280788177e-3 x47 + 7.1618226600985e-3 x48 + 1.90597290640392e-2 x49 
  + 4.30814039408867e-2 x50 - 5.84953201970443e-2 x51 + x79 = 0
 e30: - 2.46857142857143e-2 x2 - 7.3925738916256e-2 x3 + 6.41467980295562e-2 x4 + 6.50663793103451e-2 x5 
  - 3.71464285714285e-2 x6 - .535050246305418 x7 - 2.70312807881774e-2 x8 - 9.79469211822659e-2 x9 + 4.19678571428571e-2 x10 
  - .227835591133005 x11 - 2.09525862068966e-2 x12 + 9.96568965517242e-2 x13 + 4.46022167487685e-2 x14 
  - 6.98403940886699e-2 x15 - .112666502463054 x16 - 6.30321428571428e-2 x17 - 1.9745812807882e-2 x18 
  - 3.34701970443349e-2 x19 + 3.77807881773411e-3 x20 - 1.5525738916256e-2 x21 - .263382019704433 x22 
  - 2.8408866995074e-3 x23 + 1.93103448275862e-2 x24 - .248852832512316 x25 + 3.78883004926109e-2 x26 
  - 4.74738916256158e-2 x27 - .105538669950739 x28 + 1.05298029556651e-2 x29 - .377697536945813 x30 + 5.4384236453206e-4 x31 
  - .951268472906402 x32 - .460486822660098 x33 - 6.81185960591131e-2 x34 - .443448645320197 x35 - 3.27167487684727e-3 x36 
  + 8.85221674876974e-4 x37 - 2.21567733990147e-2 x38 + 2.79309113300492e-2 x39 + .255780418719212 x40 
  - .166574753694582 x41 - 3.83142857142857e-2 x42 - 4.92060344827586e-2 x43 - 7.66216748768474e-2 x44 
  - .450717364532019 x45 + 8.33066502463045e-3 x46 - 1.3145197044335e-2 x47 + 8.90221674876848e-3 x48 
  - .625748399014778 x49 - .135305049261084 x50 - .598372783251232 x51 + x80 = 0
 e31: 1.73428571428572e-2 x2 + .124098275862069 x3 + 8.03294334975367e-2 x4 + .160514408866995 x5 + 2.53142857142857e-2 x6 
  + 6.50291871921183e-2 x7 - 7.78251231527084e-3 x8 + .159022660098522 x9 + .109617857142857 x10 + 7.95014778325124e-2 x11 
  + 1.82618226600983e-2 x12 + 3.23184729064039e-2 x13 + 2.00123152709358e-2 x14 + 6.41795566502463e-2 x15 
  + .404330541871921 x16 + 8.01107142857146e-2 x17 + 8.15288177339898e-2 x18 + 9.64334975369458e-3 x19 
  + 3.67623152709363e-3 x20 - 7.95529556650248e-3 x21 + 3.80943349753697e-2 x22 + 4.38435960591134e-3 x23 
  - 7.47229064039407e-3 x24 - .139237561576355 x25 + .103441748768473 x26 + 1.78847290640395e-2 x27 + .240510960591133 x28 
  + 9.3254926108374e-3 x29 + 5.4384236453206e-4 x30 - .286431034482759 x31 + 7.05390394088674e-2 x32 
  - 2.7538300492611e-2 x33 + 3.73768472906404e-2 x34 - .162312315270936 x35 + 7.97918719211821e-3 x36 
  + .130383374384237 x37 + 3.503657635468e-2 x38 + .153442364532019 x39 - .111520689655172 x40 + .216395812807881 x41 
  - 2.29678571428571e-2 x42 - 6.04616995073892e-2 x43 - 6.29172413793103e-2 x44 - .300629802955665 x45 
  + 1.47929802955665e-2 x46 + 1.4692118226601e-4 x47 + 1.99088669950737e-3 x48 - .129352216748769 x49 
  - .133114162561576 x50 + .121240886699507 x51 + x81 = 0
 e32: - .212957142857143 x2 - .64849802955665 x3 - .707697413793104 x4 - .644871059113304 x5 - .231007142857143 x6 
  - 1.22684100985222 x7 - 4.70796798029563e-2 x8 - 1.67176416256158 x9 - 1.28714285714286 x10 - 1.39005270935961 x11 
  - .12347881773399 x12 + .116394704433497 x13 + .37894408866995 x14 - .38718275862069 x15 - .52246908866995 x16 
  - .486471428571429 x17 - .335206403940885 x18 - .14173066502463 x19 - .743553448275861 x20 - .36064445812808 x21 
  - .479602709359603 x22 + 8.19102216748769e-2 x23 + .233229556650246 x24 - .402912684729066 x25 + .224957389162561 x26 
  + 7.39220443349749e-2 x27 - 2.02328497536946 x28 - .125055665024631 x29 - .951268472906402 x30 + 7.05390394088674e-2 x31 
  - 15.4825935960591 x32 - 1.35106490147783 x33 - .155915886699507 x34 - 2.13346551724138 x35 - 1.64624384236453e-2 x36 
  + 1.12774298029557 x37 + 3.18811576354682e-2 x38 - .353897906403941 x39 + .36230578817734 x40 - 1.09845184729064 x41 
  + 3.41928571428573e-2 x42 - .112370812807881 x43 - 1.06630172413793 x44 - 1.49383940886699 x45 - 3.53448275862234e-5 x46 
  - .210109236453202 x47 - 5.23166256157636e-2 x48 - 4.04501736453202 x49 + .228453940886699 x50 - 3.83737733990148 x51 
  + x82 = 0
 e33: - 9.71249999999998e-2 x2 - .11841145320197 x3 + 7.83682266009842e-2 x4 - 1.57300492610857e-2 x5 
  - .107235714285714 x6 - 1.18731810344827 x7 - .11383842364532 x8 + 6.60530788177339e-2 x9 - .151585714285713 x10 
  - 3.89713054187185e-2 x11 - 6.03633004926109e-2 x12 + .25882118226601 x13 + .132127216748769 x14 + 6.86203201970445e-2 x15 
  - 1.4484486453202 x16 - .137678571428572 x17 - 7.55208128078822e-2 x18 - .130630911330049 x19 + 6.45137931034483e-2 x20 
  - .318697167487684 x21 - .344821305418719 x22 - 1.56730295566502e-2 x23 + 1.92105911330048e-3 x24 - .584777832512315 x25 
  - 4.99045566502462e-2 x26 + .107179679802956 x27 - .700249384236453 x28 - 2.29094827586208e-2 x29 - .460486822660098 x30 
  - 2.7538300492611e-2 x31 - 1.35106490147783 x32 - 3.2989118226601 x33 - .139718596059113 x34 - 1.78000578817734 x35 
  + 7.15176108374385e-2 x36 + .284245935960592 x37 - .190181773399015 x38 - .452401231527093 x39 - .467480295566502 x40 
  - 6.87118226600923e-3 x41 + 3.90750000000001e-2 x42 - .138520320197045 x43 - .757593103448276 x44 - 2.32773522167488 x45 
  + 7.69852216748763e-3 x46 - 2.31094827586206e-2 x47 + 5.12415024630542e-2 x48 - 2.31930554187192 x49 
  - .394208620689655 x50 - 1.33483706896552 x51 + x83 = 0
 e34: - 1.28321428571428e-2 x2 - 2.07647783251233e-2 x3 + 2.13596059113295e-3 x4 - 4.59474137931038e-2 x5 
  - 1.57464285714284e-2 x6 - .252390640394089 x7 - 1.94541871921182e-2 x8 - .146806280788177 x9 - .137478571428572 x10 
  - 5.999039408867e-2 x11 - 4.61017241379309e-2 x12 - 1.31834975369459e-2 x13 - 3.15020935960588e-2 x14 
  - 1.50257389162562e-2 x15 - .102937192118227 x16 + 1.09071428571427e-2 x17 - 3.87698275862068e-2 x18 
  - 4.19896551724138e-2 x19 - 3.39199507389168e-3 x20 - 4.28826354679803e-2 x21 - .121376108374384 x22 
  - 6.70701970443348e-3 x23 - 1.18596059113303e-3 x24 - .108278078817734 x25 - 6.77304187192118e-2 x26 
  - 1.90671182266011e-2 x27 - 8.92055418719211e-2 x28 + 2.43389162561576e-2 x29 - 6.81185960591131e-2 x30 
  + 3.73768472906404e-2 x31 - .155915886699507 x32 - .139718596059113 x33 - .207543349753695 x34 - .149658620689655 x35 
  + 8.52364532019705e-3 x36 + 5.01937192118221e-2 x37 - 1.25426108374383e-2 x38 - 8.2149630541872e-2 x39 
  - 1.40630541871921e-2 x40 - 4.77843596059111e-2 x41 - 2.71142857142858e-2 x42 - 3.22635467980296e-2 x43 
  + 9.15700738916257e-2 x44 - .301043719211822 x45 + 1.10454433497537e-2 x46 + 1.06103448275863e-2 x47 
  - 6.45209359605912e-3 x48 - .279025123152709 x49 - 8.13688423645321e-2 x50 - .262737807881773 x51 + x84
   = 0
 e35: - 6.33071428571426e-2 x2 - 3.80407635467979e-2 x3 + .158436453201969 x4 + .206882758620689 x5 - 4.7357142857143e-2 x6 
  - .605071921182266 x7 - 7.14268472906406e-2 x8 - 2.64027093596037e-3 x9 - 3.00428571428567e-2 x10 - 6.1517610837439e-2 x11 
  - 8.03373152709364e-2 x12 + .196006650246305 x13 + .143297290640394 x14 + 1.94692118226601e-2 x15 - .55256157635468 x16 
  - .10665 x17 + 3.79583743842361e-2 x18 - 5.60546798029557e-2 x19 + 3.90258620689654e-3 x20 - .120612192118226 x21 
  - .238714039408867 x22 - 3.62820197044332e-3 x23 - 1.31114532019703e-2 x24 - .695987807881775 x25 - .137130541871921 x26 
  + 1.59343596059115e-2 x27 - .565498768472906 x28 + 3.73167487684729e-2 x29 - .443448645320197 x30 - .162312315270936 x31 
  - 2.13346551724138 x32 - 1.78000578817734 x33 - .149658620689655 x34 - 2.20904014778325 x35 + 1.66137931034482e-2 x36 
  + .28408472906404 x37 - 1.65349753694577e-2 x38 + 7.1958251231527e-2 x39 - .169932019704434 x40 - 8.32709359605909e-2 x41 
  + 7.38714285714285e-2 x42 - .120776354679803 x43 - .587593349753695 x44 - 2.12854901477833 x45 + 3.56113300492609e-2 x46 
  - 3.90653940886698e-2 x47 + 2.15472906403941e-2 x48 - 2.26583608374384 x49 - .343006527093596 x50 - 1.15981342364532 x51 
  + x85 = 0
 e36: - 4.25000000000001e-3 x2 - 8.80849753694576e-3 x3 - 2.90546798029556e-2 x4 - 2.88485221674858e-3 x5 
  + 1.47142857142863e-3 x6 - 6.89349753694581e-2 x7 - 3.14187192118225e-3 x8 - 5.09852216748764e-3 x9 
  + 5.86785714285728e-3 x10 - 3.6675369458128e-2 x11 + 4.43472906403916e-4 x12 - 1.00278325123152e-2 x13 
  - 2.46102216748768e-2 x14 - 2.07145320197044e-2 x15 + 1.52030788177343e-2 x16 - 7.57142857142891e-4 x17 
  - 2.61054187192118e-2 x18 + 3.54987684729066e-3 x19 - 2.65735221674877e-2 x20 + 4.57736453201971e-2 x21 
  - 5.66039408866993e-2 x22 - 4.30911330049251e-4 x23 - 1.67274630541872e-2 x24 - 3.91272167487684e-2 x25 
  - 2.28970443349753e-2 x26 - 1.90676108374384e-2 x27 - 3.1058990147783e-2 x28 - 4.12869458128075e-3 x29 
  - 3.27167487684727e-3 x30 + 7.97918719211821e-3 x31 - 1.64624384236453e-2 x32 + 7.15176108374385e-2 x33 
  + 8.52364532019705e-3 x34 + 1.66137931034482e-2 x35 - 2.50135467980295e-2 x36 - 6.7309236453202e-2 x37 
  + 5.61317733990149e-3 x38 + 2.84572660098522e-2 x39 - 5.30019704433494e-2 x40 - 4.93471674876846e-2 x41 
  - 3.42857142857146e-3 x42 - 5.27832512315266e-3 x43 + 3.0107881773399e-2 x44 + 9.8159236453202e-2 x45 
  + 8.43719211822671e-4 x46 - 2.07266009852251e-4 x47 - 1.75307881773397e-3 x48 + 2.32237684729066e-2 x49 
  - 1.74169950738916e-2 x50 - 7.16995073891622e-2 x51 + x86 = 0
 e37: - 7.18178571428574e-2 x2 - .121545566502463 x3 - .141398645320198 x4 + 9.31160098522166e-2 x5 + 3.16035714285714e-2 x6 
  - .435502093596058 x7 - 6.68731527093612e-3 x8 + .269374384236452 x9 + 5.80142857142858e-2 x10 - 7.33185960591124e-2 x11 
  - 5.9223768472906e-2 x12 - 8.99663793103448e-2 x13 - .147745443349753 x14 + 1.2228078817734e-2 x15 
  - 9.42795566502461e-2 x16 - .125421428571429 x17 + 3.47498768472897e-2 x18 + 8.45104679802952e-2 x19 
  - 8.99970443349752e-2 x20 + .517465147783251 x21 - 1.36328817733996e-2 x22 + 5.42032019704427e-3 x23 
  - 8.259421182266e-2 x24 + .155552709359606 x25 + .149355911330049 x26 - .193778078817734 x27 + .135782019704432 x28 
  + 9.33283251231531e-2 x29 + 8.85221674876974e-4 x30 + .130383374384237 x31 + 1.12774298029557 x32 + .284245935960592 x33 
  + 5.01937192118221e-2 x34 + .28408472906404 x35 - 6.7309236453202e-2 x36 - 1.40320418719212 x37 + 1.99778325123139e-3 x38 
  + .253664532019703 x39 - .12968251231527 x40 - .121533620689655 x41 - 1.29571428571431e-2 x42 + .117525492610837 x43 
  + 5.21371921182271e-2 x44 + .649847044334975 x45 + 2.18624384236451e-2 x46 + 2.26568965517241e-2 x47 
  + 1.60759852216748e-2 x48 + .425279679802956 x49 + 5.88029556650275e-3 x50 + .113583128078817 x51 + x87
   = 0
 e38: - 5.35714285714283e-3 x2 - 4.80818965517241e-2 x3 + 4.17733990147721e-4 x4 - 6.85923645320195e-2 x5 
  - 1.11428571428573e-3 x6 - 8.92511083743847e-2 x7 - 2.37729064039408e-2 x8 - 2.30165024630542e-2 x9 
  - 4.49571428571425e-2 x10 + 9.63091133004923e-3 x11 - 1.19669950738915e-2 x12 + 2.53203201970445e-2 x13 
  + 1.40278325123154e-2 x14 + 1.92896551724137e-2 x15 - .160584975369458 x16 - 4.26392857142857e-2 x17 
  + 8.03312807881763e-3 x18 - 1.29766009852217e-2 x19 + 2.61799261083744e-2 x20 - 3.62533251231528e-2 x21 
  - 7.24690886699503e-2 x22 - 2.76847290640386e-4 x23 + 1.4298029556655e-4 x24 + 1.1878325123153e-2 x25 
  + 3.08128078817718e-3 x26 - 1.00432266009851e-2 x27 - 7.24168719211823e-2 x28 + 1.71268472906401e-3 x29 
  - 2.21567733990147e-2 x30 + 3.503657635468e-2 x31 + 3.18811576354682e-2 x32 - .190181773399015 x33 
  - 1.25426108374383e-2 x34 - 1.65349753694577e-2 x35 + 5.61317733990149e-3 x36 + 1.99778325123139e-3 x37 
  - 7.77394088669951e-2 x38 - 3.77948275862073e-2 x39 + 2.85065270935963e-2 x40 + 3.68011083743839e-2 x41 
  + 1.07107142857143e-2 x42 + 1.32463054187203e-3 x43 - 1.51108374384477e-4 x44 - 5.8912068965517e-2 x45 
  + 7.89778325123098e-4 x46 + 8.91256157635458e-4 x47 - 5.60431034482757e-3 x48 - 4.36338669950738e-2 x49 
  - 1.96280788177339e-2 x50 - .185393596059113 x51 + x88 = 0
 e39: - 4.18928571428584e-3 x2 + 8.45394088669949e-3 x3 - .336612684729064 x4 - .457774261083743 x5 - .135357142857143 x6 
  + .365085837438424 x7 - 1.11736453201973e-2 x8 - .396249753694581 x9 - .41145 x10 - .105305418719212 x11 
  + 2.29950738916232e-3 x12 + 8.61144088669946e-2 x13 - 9.54796798029553e-2 x14 - 2.81262315270934e-2 x15 
  - .183288177339901 x16 - 9.09821428571425e-2 x17 + .117876477832513 x18 + 4.55600985221677e-2 x19 - 7.31283251231531e-2 x20 
  - .192410344827586 x21 + .336951724137931 x22 - 1.04831280788177e-2 x23 + 8.23733990147781e-2 x24 - .281311083743843 x25 
  - .116270935960591 x26 + 4.7158374384236e-2 x27 - .300544950738916 x28 + .102860098522168 x29 + 2.79309113300492e-2 x30 
  + .153442364532019 x31 - .353897906403941 x32 - .452401231527093 x33 - 8.2149630541872e-2 x34 + 7.1958251231527e-2 x35 
  + 2.84572660098522e-2 x36 + .253664532019703 x37 - 3.77948275862073e-2 x38 - 1.67503866995074 x39 + .367372290640393 x40 
  - .413975123152709 x41 + 5.62821428571427e-2 x42 + .169001231527094 x43 + .106821551724138 x44 + 7.96783251231542e-2 x45 
  - 1.62206896551723e-2 x46 + 3.27029556650246e-2 x47 - 1.19225369458129e-2 x48 - .369245443349753 x49 
  - 5.87778325123157e-2 x50 - .378004679802956 x51 + x89 = 0
 e40: - 8.9285714285711e-4 x2 + 3.20119458128077e-2 x3 - 7.19899014778327e-2 x4 + 3.31846059113289e-2 x5 
  - 2.09464285714286e-2 x6 - 9.24876847290629e-2 x7 - 3.95738916256162e-3 x8 + .183688916256158 x9 - 7.84928571428565e-2 x10 
  + 6.72366995073899e-2 x11 - 4.02099753694581e-2 x12 - .134719827586207 x13 - .153867980295567 x14 + 4.23947044334975e-2 x15 
  - .483907019704434 x16 + .277285714285714 x17 - .123884359605912 x18 - 4.78651477832512e-2 x19 - .178121798029557 x20 
  + .273808374384236 x21 + 3.67241379310289e-3 x22 + 7.29064039408853e-5 x23 - 7.28743842364532e-2 x24 
  - 9.83405172413795e-2 x25 - .105250738916256 x26 + 7.72874384236453e-2 x27 - 6.54986453201968e-2 x28 
  - 5.61758620689657e-2 x29 + .255780418719212 x30 - .111520689655172 x31 + .36230578817734 x32 - .467480295566502 x33 
  - 1.40630541871921e-2 x34 - .169932019704434 x35 - 5.30019704433494e-2 x36 - .12968251231527 x37 + 2.85065270935963e-2 x38 
  + .367372290640393 x39 - 1.8209066502463 x40 + .276744827586207 x41 - 2.34250000000002e-2 x42 - .210412561576355 x43 
  - .331612684729064 x44 - .333635344827585 x45 + 6.08817733990161e-3 x46 - 7.83004926108468e-4 x47 - 5.10012315270934e-3 x48 
  - .36697290640394 x49 - 8.83689655172414e-2 x50 + .279085591133005 x51 + x90 = 0
 e41: - 4.60857142857143e-2 x2 - .123291502463054 x3 - .17665960591133 x4 - .199861576354679 x5 - 7.08714285714286e-2 x6 
  - 6.10221674876854e-2 x7 + 1.28168719211822e-2 x8 - .282222906403941 x9 - .149778571428572 x10 - .340003201970443 x11 
  - 1.91847290640412e-3 x12 - 7.11453201970334e-4 x13 - 8.66612068965512e-2 x14 - .205099753694581 x15 
  - .349353078817733 x16 - 2.63142857142854e-2 x17 - 8.74660098522157e-2 x18 + 2.39501231527094e-2 x19 
  - 6.24264778325124e-2 x20 - 2.01272167487685e-2 x21 - .104753201970443 x22 + 2.96662561576353e-3 x23 
  + 1.79174876847308e-3 x24 - 5.6944211822661e-2 x25 - .24696724137931 x26 - .132257389162562 x27 - .40697672413793 x28 
  - 3.37320197044332e-2 x29 - .166574753694582 x30 + .216395812807881 x31 - 1.09845184729064 x32 - 6.87118226600923e-3 x33 
  - 4.77843596059111e-2 x34 - 8.32709359605909e-2 x35 - 4.93471674876846e-2 x36 - .121533620689655 x37 
  + 3.68011083743839e-2 x38 - .413975123152709 x39 + .276744827586207 x40 - .867384975369458 x41 - 8.79821428571429e-2 x42 
  + 1.23461822660102e-2 x43 - 6.13293103448281e-2 x44 + 8.73979064039402e-2 x45 - 7.50800492610842e-3 x46 
  - 3.87784482758621e-2 x47 - 6.06834975369459e-3 x48 - .400759482758621 x49 + 4.3170566502463e-2 x50 
  - .628500492610837 x51 + x91 = 0
 e42: 6.50714285714286e-3 x2 - 2.47464285714287e-2 x3 + 7.0714285714271e-4 x4 + 4.47607142857143e-2 x5 
  - 1.05571428571429e-2 x6 + 9.02464285714283e-2 x7 - 3.07857142857136e-3 x8 - 5.16e-2 x9 - 3.52857142857158e-3 x10 
  - 5.65857142857142e-2 x11 - 7.71428571428663e-4 x12 - 6.96642857142858e-2 x13 + 2.54857142857143e-2 x14 
  - 2.68642857142857e-2 x15 + .198282142857143 x16 + 4.36107142857143e-2 x17 - 3.43035714285715e-2 x18 
  - 1.005e-2 x19 + 3.33928571428567e-3 x20 + 5.81071428571429e-2 x21 - .17465 x22 + 5.54285714285713e-3 x23 
  + 4.78571428571425e-3 x24 + 3.01999999999999e-2 x25 + 3.86357142857142e-2 x26 - 1.46642857142857e-2 x27 
  + 3.89964285714284e-2 x28 - 7.42857142857142e-3 x29 - 3.83142857142857e-2 x30 - 2.29678571428571e-2 x31 
  + 3.41928571428573e-2 x32 + 3.90750000000001e-2 x33 - 2.71142857142858e-2 x34 + 7.38714285714285e-2 x35 
  - 3.42857142857146e-3 x36 - 1.29571428571431e-2 x37 + 1.07107142857143e-2 x38 + 5.62821428571427e-2 x39 
  - 2.34250000000002e-2 x40 - 8.79821428571429e-2 x41 - .114242857142857 x42 - 4.49607142857143e-2 x43 
  + 8.98571428571443e-3 x44 - 8.50071428571426e-2 x45 + 2.58214285714284e-3 x46 - 1.82321428571428e-2 x47 
  - 8.29285714285715e-3 x48 - 1.86892857142856e-2 x49 - 1.44642857142857e-2 x50 + 1.26428571428567e-3 x51 
  + x92 = 0
 e43: - 6.1071428571428e-3 x2 + 9.06859605911338e-3 x3 + 5.01067733990149e-2 x4 - 3.04699507389161e-2 x5 
  + 2.82035714285715e-2 x6 + 7.3189532019704e-2 x7 - 1.38937192118227e-2 x8 - 6.62807881773367e-3 x9 
  + 6.97714285714288e-2 x10 + 1.04605911330053e-2 x11 + 7.80972906403934e-3 x12 - 5.43104679802956e-2 x13 
  + 4.16564039408845e-3 x14 - 9.6953201970443e-3 x15 - 5.73692118226604e-2 x16 + 6.05857142857141e-2 x17 
  - 2.0418472906404e-2 x18 - 4.3804802955665e-2 x19 + 1.76834975369465e-3 x20 + 5.02221674876847e-2 x21 
  - .111921551724138 x22 - 7.36625615763547e-3 x23 - 2.86174876847291e-2 x24 - 4.38864532019708e-2 x25 
  + 7.9438423645321e-3 x26 - 1.37975369458129e-2 x27 - 7.3122044334975e-2 x28 - 4.34440886699508e-2 x29 
  - 4.92060344827586e-2 x30 - 6.04616995073892e-2 x31 - .112370812807881 x32 - .138520320197045 x33 - 3.22635467980296e-2 x34 
  - .120776354679803 x35 - 5.27832512315266e-3 x36 + .117525492610837 x37 + 1.32463054187203e-3 x38 + .169001231527094 x39 
  - .210412561576355 x40 + 1.23461822660102e-2 x41 - 4.49607142857143e-2 x42 - .17984039408867 x43 - 5.69640394088667e-2 x44 
  - .294600492610837 x45 - 3.11280788177337e-3 x46 - 2.03833743842364e-2 x47 - 2.66502463054162e-4 x48 
  - .261708743842364 x49 - 7.02520935960593e-2 x50 - .139827216748769 x51 + x93 = 0
 e44: - 2.62571428571427e-2 x2 - 1.611921182266e-2 x3 + 7.9123891625615e-2 x4 + .237593719211822 x5 + 1.15964285714284e-2 x6 
  + .428347167487684 x7 - 3.11561576354681e-2 x8 + .208605049261083 x9 + .17375 x10 - 5.82432266009849e-2 x11 
  + 1.48613300492608e-2 x12 + .152475738916256 x13 - .20116736453202 x14 - 3.80466748768473e-2 x15 + 7.26602216748769e-2 x16 
  + .104396428571428 x17 - 3.48554187192115e-2 x18 - 1.55322660098522e-2 x19 + 3.59514778325124e-2 x20 
  + 6.80415024630541e-2 x21 + .264699630541873 x22 + 1.69262315270936e-2 x23 + 2.18689655172415e-2 x24 
  - .321034359605912 x25 + 2.71366995073873e-3 x26 - 1.23783251231527e-2 x27 - .166037561576355 x28 - 1.53694581280794e-4 x29 
  - 7.66216748768474e-2 x30 - 6.29172413793103e-2 x31 - 1.06630172413793 x32 - .757593103448276 x33 + 9.15700738916257e-2 x34 
  - .587593349753695 x35 + 3.0107881773399e-2 x36 + 5.21371921182271e-2 x37 - 1.51108374384477e-4 x38 
  + .106821551724138 x39 - .331612684729064 x40 - 6.13293103448281e-2 x41 + 8.98571428571443e-3 x42 - 5.69640394088667e-2 x43 
  - 1.05286354679803 x44 - .873405049261083 x45 - 7.08485221674877e-3 x46 - 8.99715517241378e-2 x47 - 4.44593596059117e-3 x48 
  - 1.04107266009852 x49 - .15136342364532 x50 - 8.66995073891632e-2 x51 + x94 = 0
 e45: - 4.35892857142854e-2 x2 - 9.43937192118226e-2 x3 + 7.94022167487677e-2 x4 + 5.34447044334963e-2 x5 
  + 8.59928571428572e-2 x6 - .950612192118227 x7 - .109055541871921 x8 - 7.00493842364531e-2 x9 - .30145 x10 
  - 2.58528325123149e-2 x11 + 2.44380541871913e-2 x12 + 6.17270935960589e-2 x13 + .208899014778325 x14 
  + 4.58147783251231e-2 x15 - .292627586206897 x16 + .318171428571428 x17 + 8.07929802955667e-2 x18 - .282578325123153 x19 
  + 3.34704433497591e-3 x20 - .257765147783251 x21 - .444256403940886 x22 - 3.468460591133e-2 x23 + 5.53192118226603e-2 x24 
  - .462495566502463 x25 - 1.69737684729066e-2 x26 + 3.1285221674877e-2 x27 - .686139162561576 x28 - 4.76403940886741e-3 x29 
  - .450717364532019 x30 - .300629802955665 x31 - 1.49383940886699 x32 - 2.32773522167488 x33 - .301043719211822 x34 
  - 2.12854901477833 x35 + 9.8159236453202e-2 x36 + .649847044334975 x37 - 5.8912068965517e-2 x38 + 7.96783251231542e-2 x39 
  - .333635344827585 x40 + 8.73979064039402e-2 x41 - 8.50071428571426e-2 x42 - .294600492610837 x43 - .873405049261083 x44 
  - 4.36525418719212 x45 + 3.08947044334975e-2 x46 - 6.31211822660097e-2 x47 - 1.48009852216749e-2 x48 
  - 2.99897253694581 x49 - .630058866995074 x50 - 1.16916169950739 x51 + x95 = 0
 e46: - 4.10714285714303e-4 x2 - 7.24137931034384e-5 x3 - 1.3270935960591e-2 x4 - 1.31412561576353e-2 x5 
  + 7.2142857142856e-4 x6 + 1.91937192118227e-2 x7 + 4.04876847290639e-3 x8 - 3.24113300492603e-3 x9 
  + 2.01678571428572e-2 x10 - 5.45073891625615e-4 x11 + 7.91440886699501e-3 x12 + 3.38657635467984e-3 x13 
  - 2.71133004926102e-3 x14 - 2.13004926108374e-3 x15 - 3.6231527093596e-2 x16 + 7.49285714285709e-3 x17 
  - 1.19075123152708e-2 x18 - 4.84359605911328e-3 x19 + 6.98743842364534e-3 x20 - 1.12974137931035e-2 x21 
  + 8.72783251231565e-4 x22 - 1.48903940886699e-3 x23 + 4.27093596059114e-3 x24 + 7.00455665024631e-3 x25 
  + 1.5213054187192e-3 x26 + 3.54790640394086e-3 x27 - 3.74967980295565e-2 x28 - 1.97167487684699e-4 x29 
  + 8.33066502463045e-3 x30 + 1.47929802955665e-2 x31 - 3.53448275862234e-5 x32 + 7.69852216748763e-3 x33 
  + 1.10454433497537e-2 x34 + 3.56113300492609e-2 x35 + 8.43719211822671e-4 x36 + 2.18624384236451e-2 x37 
  + 7.89778325123098e-4 x38 - 1.62206896551723e-2 x39 + 6.08817733990161e-3 x40 - 7.50800492610842e-3 x41 
  + 2.58214285714284e-3 x42 - 3.11280788177337e-3 x43 - 7.08485221674877e-3 x44 + 3.08947044334975e-2 x45 
  - 8.12339901477831e-3 x46 + 9.52832512315239e-4 x47 - 1.68633004926109e-3 x48 + 1.35568965517242e-2 x49 
  + 1.14016009852217e-2 x50 + 1.42493842364532e-2 x51 + x96 = 0
 e47: - 6.40357142857142e-3 x2 - 1.14182266009852e-2 x3 + 1.21912561576354e-2 x4 + 3.55135467980296e-2 x5 
  + 4.61071428571428e-3 x6 + 5.21570197044333e-2 x7 - 6.49064039408863e-3 x8 + 1.87832512315275e-3 x9 
  - 6.7714285714286e-3 x10 - 2.14410098522168e-2 x11 + 2.19334975369465e-3 x12 + 4.69630541871921e-3 x13 
  + 1.23261083743842e-2 x14 - 2.20773399014778e-2 x15 + 4.91703201970444e-2 x16 - 6.03571428571429e-3 x17 
  + 9.4950738916248e-5 x18 - 3.87081280788179e-3 x19 - 2.77881773399013e-3 x20 + 1.8749630541872e-2 x21 
  - 7.79100985221667e-3 x22 + 4.87955665024631e-3 x23 - 3.59482758620687e-3 x24 - 3.12889162561577e-2 x25 
  + 3.26736453201972e-3 x26 - 7.67980295566499e-3 x27 + 2.43378078817735e-2 x28 - 8.84581280788177e-3 x29 
  - 1.3145197044335e-2 x30 + 1.4692118226601e-4 x31 - .210109236453202 x32 - 2.31094827586206e-2 x33 
  + 1.06103448275863e-2 x34 - 3.90653940886698e-2 x35 - 2.07266009852251e-4 x36 + 2.26568965517241e-2 x37 
  + 8.91256157635458e-4 x38 + 3.27029556650246e-2 x39 - 7.83004926108468e-4 x40 - 3.87784482758621e-2 x41 
  - 1.82321428571428e-2 x42 - 2.03833743842364e-2 x43 - 8.99715517241378e-2 x44 - 6.31211822660097e-2 x45 
  + 9.52832512315239e-4 x46 - 2.71386699507389e-2 x47 - 1.5274630541872e-3 x48 - 6.88188423645319e-2 x49 
  + 1.18854679802959e-3 x50 - 3.63560344827585e-2 x51 + x97 = 0
 e48: 3.58571428571431e-3 x2 - 6.24495073891627e-3 x3 - 1.37150246305418e-2 x4 - 1.08633004926108e-3 x5 
  + 1.42142857142858e-3 x6 + 5.36576354679802e-2 x7 - 3.56958128078816e-3 x8 - 2.43347290640394e-2 x9 
  - 1.56285714285714e-2 x10 + 2.78325123152747e-4 x11 + 4.8017241379307e-4 x12 - 7.99593596059114e-3 x13 
  + 2.3485221674878e-4 x14 - 2.26354679802942e-4 x15 + 7.01514778325127e-3 x16 + 1.07785714285714e-2 x17 
  + 8.38054187192177e-4 x18 - 2.83817733990148e-3 x19 - 1.49901477832512e-3 x20 - 7.25209359605912e-3 x21 
  - 2.30038177339901e-2 x22 + 9.0677339901478e-4 x23 + 2.8185960591133e-3 x24 - 3.24076354679801e-3 x25 
  - 3.46588669950738e-3 x26 - 8.07721674876846e-3 x27 - 2.81405172413793e-2 x28 + 7.1618226600985e-3 x29 
  + 8.90221674876848e-3 x30 + 1.99088669950737e-3 x31 - 5.23166256157636e-2 x32 + 5.12415024630542e-2 x33 
  - 6.45209359605912e-3 x34 + 2.15472906403941e-2 x35 - 1.75307881773397e-3 x36 + 1.60759852216748e-2 x37 
  - 5.60431034482757e-3 x38 - 1.19225369458129e-2 x39 - 5.10012315270934e-3 x40 - 6.06834975369459e-3 x41 
  - 8.29285714285715e-3 x42 - 2.66502463054162e-4 x43 - 4.44593596059117e-3 x44 - 1.48009852216749e-2 x45 
  - 1.68633004926109e-3 x46 - 1.5274630541872e-3 x47 - 9.14014778325123e-3 x48 - 4.43177339901483e-3 x49 
  + 2.15652709359608e-3 x50 - 1.13401477832512e-2 x51 + x98 = 0
 e49: - .102967857142857 x2 - .260646551724138 x3 - .143923152709361 x4 - .192918103448278 x5 - 6.955e-2 x6 
  - .599583374384237 x7 - 8.37314039408872e-2 x8 - .391906034482759 x9 - .276953571428572 x10 - .466888669950739 x11 
  - 4.01200738916269e-2 x12 + .184302339901478 x13 - 7.75746305418716e-2 x14 - 9.34698275862069e-2 x15 
  - .444718226600986 x16 + 3.80607142857139e-2 x17 - .165096921182265 x18 - .190043842364532 x19 - 7.63417487684726e-2 x20 
  - 2.85837438423833e-4 x21 - .362270812807881 x22 + 1.74556650246309e-3 x23 + 5.6766009852217e-2 x24 
  - .830328448275863 x25 - .10806921182266 x26 + 4.24626847290637e-2 x27 - 1.34104692118227 x28 + 1.90597290640392e-2 x29 
  - .625748399014778 x30 - .129352216748769 x31 - 4.04501736453202 x32 - 2.31930554187192 x33 - .279025123152709 x34 
  - 2.26583608374384 x35 + 2.32237684729066e-2 x36 + .425279679802956 x37 - 4.36338669950738e-2 x38 - .369245443349753 x39 
  - .36697290640394 x40 - .400759482758621 x41 - 1.86892857142856e-2 x42 - .261708743842364 x43 - 1.04107266009852 x44 
  - 2.99897253694581 x45 + 1.35568965517242e-2 x46 - 6.88188423645319e-2 x47 - 4.43177339901483e-3 x48 
  - 3.66250270935961 x49 - .537814532019705 x50 - 1.93642820197044 x51 + x99 = 0
 e50: - 1.28571428571428e-2 x2 + 3.91561576354679e-2 x3 + 3.79897783251226e-2 x4 + 6.32230295566501e-2 x5 
  + 3.40178571428571e-2 x6 - .322795566502463 x7 - 3.40833743842364e-2 x8 + .122155295566502 x9 + 3.52214285714285e-2 x10 
  - 6.55450738916255e-2 x11 - 1.52891625615765e-2 x12 + 6.45472906403939e-2 x13 - .205914901477833 x14 
  - 4.07514778325123e-2 x15 + .266336330049261 x16 + 9.18071428571429e-2 x17 - 3.44182266009856e-2 x18 
  - 5.02007389162562e-2 x19 + 6.16958128078821e-3 x20 + 1.31490147783254e-2 x21 - .226616502463054 x22 
  - 1.59533251231527e-2 x23 - 1.39397783251231e-2 x24 - .488666871921182 x25 + 3.98927339901478e-2 x26 
  - 7.18663793103447e-2 x27 + 1.67820197044306e-3 x28 + 4.30814039408867e-2 x29 - .135305049261084 x30 
  - .133114162561576 x31 + .228453940886699 x32 - .394208620689655 x33 - 8.13688423645321e-2 x34 - .343006527093596 x35 
  - 1.74169950738916e-2 x36 + 5.88029556650275e-3 x37 - 1.96280788177339e-2 x38 - 5.87778325123157e-2 x39 
  - 8.83689655172414e-2 x40 + 4.3170566502463e-2 x41 - 1.44642857142857e-2 x42 - 7.02520935960593e-2 x43 
  - .15136342364532 x44 - .630058866995074 x45 + 1.14016009852217e-2 x46 + 1.18854679802959e-3 x47 + 2.15652709359608e-3 x48 
  - .537814532019705 x49 - .397459113300492 x50 - .372629187192119 x51 + x100 = 0
 e51: - .1342 x2 - .351059236453202 x3 - .236040024630542 x4 - .56390775862069 x5 - 7.14749999999997e-2 x6 
  - 1.67819593596059 x7 - .121226724137931 x8 - .603274014778325 x9 - .650510714285714 x10 - .627985960591133 x11 
  - 8.5544827586207e-2 x12 + .104261206896552 x13 - 2.81115763546798e-2 x14 - .177329926108374 x15 - .730027709359606 x16 
  - .300596428571429 x17 - .222811945812808 x18 - .14378460591133 x19 - .147313300492611 x20 - 4.82806650246306e-2 x21 
  - 1.01497524630542 x22 - 1.16325123152709e-2 x23 - 2.96385467980296e-2 x24 - .529690763546798 x25 - .117551600985222 x26 
  - .192709359605912 x27 - 1.15367623152709 x28 - 5.84953201970443e-2 x29 - .598372783251232 x30 + .121240886699507 x31 
  - 3.83737733990148 x32 - 1.33483706896552 x33 - .262737807881773 x34 - 1.15981342364532 x35 - 7.16995073891622e-2 x36 
  + .113583128078817 x37 - .185393596059113 x38 - .378004679802956 x39 + .279085591133005 x40 - .628500492610837 x41 
  + 1.26428571428567e-3 x42 - .139827216748769 x43 - 8.66995073891632e-2 x44 - 1.16916169950739 x45 + 1.42493842364532e-2 x46 
  - 3.63560344827585e-2 x47 - 1.13401477832512e-2 x48 - 1.93642820197044 x49 - .372629187192119 x50 - 2.79586157635468 x51 
  + x101 = 0
 e52: x2 + x3 + x4 + x5 + x6 + x7 + x8 + x9 + x10 + x11 + x12 + x13 + x14 + x15 + x16 + x17 + x18 + x19 
  + x20 + x21 + x22 + x23 + x24 + x25 + x26 + x27 + x28 + x29 + x30 + x31 + x32 + x33 + x34 + x35 + x36 
  + x37 + x38 + x39 + x40 + x41 + x42 + x43 + x44 + x45 + x46 + x47 + x48 + x49 + x50 + x51 = 1
 e53: - 5.17241379310345e-2 x3 + 5.58620689655172e-2 x4 + .116551724137931 x5 - 1.72413793103448e-2 x7 
  - 4.96551724137931e-2 x8 - 6.44827586206896e-2 x9 + 8.62068965517241e-3 x11 + 6.89655172413793e-2 x12 
  - 1.72413793103448e-2 x13 - 9.48275862068965e-2 x14 - 4.75862068965517e-2 x15 + .344827586206897 x16 
  + 2.99999999999999e-2 x17 + 1.31034482758622e-2 x18 + 5.62068965517241e-2 x19 - 6.44827586206897e-2 x20 
  - .301724137931034 x21 - .241379310344828 x22 - 2.06896551724138e-3 x23 - 2.58620689655172e-2 x24 - .198275862068966 x25 
  - 3.89655172413793e-2 x26 + 7.75862068965517e-2 x27 - .206896551724138 x28 + 5.62068965517242e-2 x29 
  - 7.75862068965517e-2 x30 + 6.89655172413793e-2 x31 - 1.04310344827586 x32 - .327586206896552 x33 - 2.17241379310345e-2 x34 
  - .155172413793103 x35 - 1.72413793103448e-2 x36 - .28448275862069 x37 + 5.58620689655173e-2 x38 + .163793103448276 x39 
  - .370689655172414 x40 + 1.72413793103448e-2 x41 - 3e-2 x42 + 4.75862068965517e-2 x43 - .517241379310345 x44 
  - .21551724137931 x45 + 6.55172413793105e-3 x46 - 5.37931034482758e-2 x47 - 1.48275862068966e-2 x48 
  - .417931034482759 x49 - .103448275862069 x50 - .124827586206896 x51 >= -.100241379310345

Bounds
 x52 Free
 x53 Free
 x54 Free
 x55 Free
 x56 Free
 x57 Free
 x58 Free
 x59 Free
 x60 Free
 x61 Free
 x62 Free
 x63 Free
 x64 Free
 x65 Free
 x66 Free
 x67 Free
 x68 Free
 x69 Free
 x70 Free
 x71 Free
 x72 Free
 x73 Free
 x74 Free
 x75 Free
 x76 Free
 x77 Free
 x78 Free
 x79 Free
 x80 Free
 x81 Free
 x82 Free
 x83 Free
 x84 Free
 x85 Free
 x86 Free
 x87 Free
 x88 Free
 x89 Free
 x90 Free
 x91 Free
 x92 Free
 x93 Free
 x94 Free
 x95 Free
 x96 Free
 x97 Free
 x98 Free
 x99 Free
 x100 Free
 x101 Free

End
